(set-info :source |printed by MathSAT|)
(declare-fun shared () Int)
(declare-fun erreur () Bool)
(declare-fun call__DRAGON_.ite25 () Int)
(declare-fun param_e01 () Bool)
(declare-fun call__DRAGON_.ite57 () Int)
(declare-fun call__DRAGON_.ite20 () Int)
(declare-fun call__DRAGON_.ite17 () Int)
(declare-fun call__DRAGON_.g05 () Bool)
(declare-fun call__DRAGON_.ite33 () Int)
(declare-fun call__DRAGON_.invalid () Int)
(declare-fun call__DRAGON_.ite35 () Int)
(declare-fun call__DRAGON_.flby () Int)
(declare-fun call__DRAGON_.shared_dirty () Int)
(declare-fun call__DRAGON_.ite3 () Int)
(declare-fun call__DRAGON_.ite32 () Int)
(declare-fun call__DRAGON_.ite54 () Int)
(declare-fun call__DRAGON_.g04 () Bool)
(declare-fun call__DRAGON_.ite6 () Int)
(declare-fun call__DRAGON_.ite37 () Int)
(declare-fun call__DRAGON_.ite48 () Int)
(declare-fun call__DRAGON_.ite34 () Int)
(declare-fun call__DRAGON_.ite2 () Int)
(declare-fun param_e08 () Bool)
(declare-fun call__DRAGON_.ite58 () Int)
(declare-fun param_e05 () Bool)
(declare-fun call__DRAGON_.ite56 () Int)
(declare-fun call__DRAGON_.ite45 () Int)
(declare-fun call__DRAGON_.ite15 () Int)
(declare-fun call__DRAGON_.flby2 () Int)
(declare-fun call__DRAGON_.ite30 () Int)
(declare-fun call__DRAGON_.ite23 () Int)
(declare-fun call__DRAGON_.ite29 () Int)
(declare-fun call__DRAGON_.g02 () Bool)
(declare-fun call__DRAGON_.ite27 () Int)
(declare-fun call__DRAGON_.ite7 () Int)
(declare-fun call__DRAGON_.ite12 () Int)
(declare-fun call__DRAGON_.ite41 () Int)
(declare-fun call__DRAGON_.ite39 () Int)
(declare-fun call__DRAGON_.ite55 () Int)
(declare-fun param_e12 () Bool)
(declare-fun call__DRAGON_.ite40 () Int)
(declare-fun call__DRAGON_.ite26 () Int)
(declare-fun call__DRAGON_.ite4 () Int)
(declare-fun call__DRAGON_.ite8 () Int)
(declare-fun invalid () Int)
(declare-fun call__DRAGON_.ite19 () Int)
(declare-fun flby () Bool)
(declare-fun exclusive () Int)
(declare-fun call__DRAGON_.flby6 () Int)
(declare-fun call__DRAGON_.ite59 () Int)
(declare-fun call__DRAGON_.ite11 () Int)
(declare-fun param_e03 () Bool)
(declare-fun call__DRAGON_.ite22 () Int)
(declare-fun call__DRAGON_.ite14 () Int)
(declare-fun call__DRAGON_.ite24 () Int)
(declare-fun call__DRAGON_.exclusive () Int)
(declare-fun call__DRAGON_.ite44 () Int)
(declare-fun _OK_ () Bool)
(declare-fun call__DRAGON_.ite46 () Int)
(declare-fun call__DRAGON_.ite5 () Int)
(declare-fun call__DRAGON_.mem_init () Int)
(declare-fun call__DRAGON_.ite10 () Int)
(declare-fun call__DRAGON_.ite () Bool)
(declare-fun call__DRAGON_.ite61 () Int)
(declare-fun call__DRAGON_.ite21 () Int)
(declare-fun dirty () Int)
(declare-fun call__DRAGON_.ite47 () Int)
(declare-fun call__DRAGON_.ite43 () Int)
(declare-fun call__DRAGON_.flby3 () Int)
(declare-fun param_e07 () Bool)
(declare-fun call__DRAGON_.flby5 () Int)
(declare-fun param_init_invalid () Int)
(declare-fun call__DRAGON_.shared () Int)
(declare-fun call__DRAGON_.ite51 () Int)
(declare-fun param_e11 () Bool)
(declare-fun call__DRAGON_.erreur () Bool)
(declare-fun param_e02 () Bool)
(declare-fun call__DRAGON_.ite50 () Int)
(declare-fun call__DRAGON_.ite13 () Int)
(declare-fun call__DRAGON_.ite16 () Int)
(declare-fun call__DRAGON_.ite31 () Int)
(declare-fun call__DRAGON_.ite49 () Int)
(declare-fun call__DRAGON_.ite38 () Int)
(declare-fun env () Bool)
(declare-fun shared_dirty () Int)
(declare-fun call_Sofar.Sofar () Bool)
(declare-fun call__DRAGON_.ite18 () Int)
(declare-fun call__DRAGON_.ite9 () Int)
(declare-fun param_e04 () Bool)
(declare-fun call__DRAGON_.ite42 () Int)
(declare-fun call__DRAGON_.flby4 () Int)
(declare-fun call__DRAGON_.ite36 () Int)
(declare-fun call_excludes12.excludes () Bool)
(declare-fun call_Sofar.flby () Bool)
(declare-fun call__DRAGON_.g08 () Bool)
(declare-fun call__DRAGON_.ite60 () Int)
(declare-fun param_e10 () Bool)
(declare-fun call__DRAGON_.ite28 () Int)
(declare-fun call__DRAGON_.dirty () Int)
(declare-fun call__DRAGON_.g06 () Bool)
(declare-fun param_e09 () Bool)
(declare-fun call__DRAGON_.ite52 () Int)
(declare-fun call__DRAGON_.ite53 () Int)
(declare-fun param_e06 () Bool)
(define-fun .def_1751 () Bool (= call_Sofar.flby call_Sofar.Sofar))
(define-fun .def_1560 () Bool (not param_e02))
(define-fun .def_1541 () Bool (not param_e01))
(define-fun .def_1649 () Bool (and .def_1541 .def_1560))
(define-fun .def_1600 () Bool (not param_e03))
(define-fun .def_1650 () Bool (and .def_1600 .def_1649))
(define-fun .def_1616 () Bool (not param_e04))
(define-fun .def_1651 () Bool (and .def_1616 .def_1650))
(define-fun .def_1410 () Bool (not param_e05))
(define-fun .def_1652 () Bool (and .def_1410 .def_1651))
(define-fun .def_1394 () Bool (not param_e06))
(define-fun .def_1653 () Bool (and .def_1394 .def_1652))
(define-fun .def_1430 () Bool (not param_e07))
(define-fun .def_1654 () Bool (and .def_1430 .def_1653))
(define-fun .def_1448 () Bool (not param_e08))
(define-fun .def_1655 () Bool (and .def_1448 .def_1654))
(define-fun .def_1288 () Bool (not param_e09))
(define-fun .def_1656 () Bool (and .def_1288 .def_1655))
(define-fun .def_1294 () Bool (not param_e10))
(define-fun .def_1657 () Bool (and .def_1294 .def_1656))
(define-fun .def_1303 () Bool (not param_e11))
(define-fun .def_1658 () Bool (and .def_1303 .def_1657))
(define-fun .def_1310 () Bool (not param_e12))
(define-fun .def_1736 () Bool (and .def_1310 .def_1658))
(define-fun .def_1725 () Bool (and param_e01 .def_1560))
(define-fun .def_1726 () Bool (and .def_1600 .def_1725))
(define-fun .def_1727 () Bool (and .def_1616 .def_1726))
(define-fun .def_1728 () Bool (and .def_1410 .def_1727))
(define-fun .def_1729 () Bool (and .def_1394 .def_1728))
(define-fun .def_1730 () Bool (and .def_1430 .def_1729))
(define-fun .def_1731 () Bool (and .def_1448 .def_1730))
(define-fun .def_1732 () Bool (and .def_1288 .def_1731))
(define-fun .def_1733 () Bool (and .def_1294 .def_1732))
(define-fun .def_1734 () Bool (and .def_1303 .def_1733))
(define-fun .def_1735 () Bool (and .def_1310 .def_1734))
(define-fun .def_1737 () Bool (or .def_1735 .def_1736))
(define-fun .def_1714 () Bool (and .def_1541 param_e02))
(define-fun .def_1715 () Bool (and .def_1600 .def_1714))
(define-fun .def_1716 () Bool (and .def_1616 .def_1715))
(define-fun .def_1717 () Bool (and .def_1410 .def_1716))
(define-fun .def_1718 () Bool (and .def_1394 .def_1717))
(define-fun .def_1719 () Bool (and .def_1430 .def_1718))
(define-fun .def_1720 () Bool (and .def_1448 .def_1719))
(define-fun .def_1721 () Bool (and .def_1288 .def_1720))
(define-fun .def_1722 () Bool (and .def_1294 .def_1721))
(define-fun .def_1723 () Bool (and .def_1303 .def_1722))
(define-fun .def_1724 () Bool (and .def_1310 .def_1723))
(define-fun .def_1738 () Bool (or .def_1724 .def_1737))
(define-fun .def_1704 () Bool (and param_e03 .def_1649))
(define-fun .def_1705 () Bool (and .def_1616 .def_1704))
(define-fun .def_1706 () Bool (and .def_1410 .def_1705))
(define-fun .def_1707 () Bool (and .def_1394 .def_1706))
(define-fun .def_1708 () Bool (and .def_1430 .def_1707))
(define-fun .def_1709 () Bool (and .def_1448 .def_1708))
(define-fun .def_1710 () Bool (and .def_1288 .def_1709))
(define-fun .def_1711 () Bool (and .def_1294 .def_1710))
(define-fun .def_1712 () Bool (and .def_1303 .def_1711))
(define-fun .def_1713 () Bool (and .def_1310 .def_1712))
(define-fun .def_1739 () Bool (or .def_1713 .def_1738))
(define-fun .def_1695 () Bool (and param_e04 .def_1650))
(define-fun .def_1696 () Bool (and .def_1410 .def_1695))
(define-fun .def_1697 () Bool (and .def_1394 .def_1696))
(define-fun .def_1698 () Bool (and .def_1430 .def_1697))
(define-fun .def_1699 () Bool (and .def_1448 .def_1698))
(define-fun .def_1700 () Bool (and .def_1288 .def_1699))
(define-fun .def_1701 () Bool (and .def_1294 .def_1700))
(define-fun .def_1702 () Bool (and .def_1303 .def_1701))
(define-fun .def_1703 () Bool (and .def_1310 .def_1702))
(define-fun .def_1740 () Bool (or .def_1703 .def_1739))
(define-fun .def_1687 () Bool (and param_e05 .def_1651))
(define-fun .def_1688 () Bool (and .def_1394 .def_1687))
(define-fun .def_1689 () Bool (and .def_1430 .def_1688))
(define-fun .def_1690 () Bool (and .def_1448 .def_1689))
(define-fun .def_1691 () Bool (and .def_1288 .def_1690))
(define-fun .def_1692 () Bool (and .def_1294 .def_1691))
(define-fun .def_1693 () Bool (and .def_1303 .def_1692))
(define-fun .def_1694 () Bool (and .def_1310 .def_1693))
(define-fun .def_1741 () Bool (or .def_1694 .def_1740))
(define-fun .def_1680 () Bool (and param_e06 .def_1652))
(define-fun .def_1681 () Bool (and .def_1430 .def_1680))
(define-fun .def_1682 () Bool (and .def_1448 .def_1681))
(define-fun .def_1683 () Bool (and .def_1288 .def_1682))
(define-fun .def_1684 () Bool (and .def_1294 .def_1683))
(define-fun .def_1685 () Bool (and .def_1303 .def_1684))
(define-fun .def_1686 () Bool (and .def_1310 .def_1685))
(define-fun .def_1742 () Bool (or .def_1686 .def_1741))
(define-fun .def_1674 () Bool (and param_e07 .def_1653))
(define-fun .def_1675 () Bool (and .def_1448 .def_1674))
(define-fun .def_1676 () Bool (and .def_1288 .def_1675))
(define-fun .def_1677 () Bool (and .def_1294 .def_1676))
(define-fun .def_1678 () Bool (and .def_1303 .def_1677))
(define-fun .def_1679 () Bool (and .def_1310 .def_1678))
(define-fun .def_1743 () Bool (or .def_1679 .def_1742))
(define-fun .def_1669 () Bool (and param_e08 .def_1654))
(define-fun .def_1670 () Bool (and .def_1288 .def_1669))
(define-fun .def_1671 () Bool (and .def_1294 .def_1670))
(define-fun .def_1672 () Bool (and .def_1303 .def_1671))
(define-fun .def_1673 () Bool (and .def_1310 .def_1672))
(define-fun .def_1744 () Bool (or .def_1673 .def_1743))
(define-fun .def_1665 () Bool (and param_e09 .def_1655))
(define-fun .def_1666 () Bool (and .def_1294 .def_1665))
(define-fun .def_1667 () Bool (and .def_1303 .def_1666))
(define-fun .def_1668 () Bool (and .def_1310 .def_1667))
(define-fun .def_1745 () Bool (or .def_1668 .def_1744))
(define-fun .def_1662 () Bool (and param_e10 .def_1656))
(define-fun .def_1663 () Bool (and .def_1303 .def_1662))
(define-fun .def_1664 () Bool (and .def_1310 .def_1663))
(define-fun .def_1746 () Bool (or .def_1664 .def_1745))
(define-fun .def_1660 () Bool (and param_e11 .def_1657))
(define-fun .def_1661 () Bool (and .def_1310 .def_1660))
(define-fun .def_1747 () Bool (or .def_1661 .def_1746))
(define-fun .def_1659 () Bool (and param_e12 .def_1658))
(define-fun .def_1748 () Bool (or .def_1659 .def_1747))
(define-fun .def_1749 () Bool (= call_excludes12.excludes .def_1748))
(define-fun .def_1647 () Bool (= call__DRAGON_.mem_init call__DRAGON_.flby))
(define-fun .def_1645 () Bool (= call__DRAGON_.erreur call__DRAGON_.ite))
(define-fun .def_1643 () Bool (= call__DRAGON_.flby6 call__DRAGON_.invalid))
(define-fun .def_1641 () Bool (= call__DRAGON_.flby5 call__DRAGON_.dirty))
(define-fun .def_1639 () Bool (= call__DRAGON_.flby4 call__DRAGON_.shared_dirty))
(define-fun .def_1637 () Bool (= call__DRAGON_.flby3 call__DRAGON_.shared))
(define-fun .def_1634 () Bool (= call__DRAGON_.flby2 call__DRAGON_.exclusive))
(define-fun .def_1629 () Bool (<= 2 call__DRAGON_.exclusive))
(define-fun .def_1631 () Bool (not .def_1629))
(define-fun .def_1632 () Bool (or call__DRAGON_.ite .def_1631))
(define-fun .def_1628 () Bool (not call__DRAGON_.ite))
(define-fun .def_1630 () Bool (or .def_1628 .def_1629))
(define-fun .def_1633 () Bool (and .def_1630 .def_1632))
(define-fun .def_1635 () Bool (and .def_1633 .def_1634))
(define-fun .def_1623 () Bool (= call__DRAGON_.ite42 call__DRAGON_.ite43))
(define-fun .def_1624 () Bool (or param_e04 .def_1623))
(define-fun .def_1620 () Bool (= call__DRAGON_.ite43 call__DRAGON_.ite34))
(define-fun .def_1621 () Bool (or .def_1616 .def_1620))
(define-fun .def_1615 () Bool (= call__DRAGON_.ite23 call__DRAGON_.ite30))
(define-fun .def_1617 () Bool (or .def_1615 .def_1616))
(define-fun .def_1612 () Bool (= call__DRAGON_.ite29 call__DRAGON_.ite30))
(define-fun .def_1614 () Bool (or .def_1612 param_e04))
(define-fun .def_1618 () Bool (and .def_1614 .def_1617))
(define-fun .def_1622 () Bool (and .def_1618 .def_1621))
(define-fun .def_1625 () Bool (and .def_1622 .def_1624))
(define-fun .def_1608 () Bool (= call__DRAGON_.ite44 call__DRAGON_.ite43))
(define-fun .def_1609 () Bool (or param_e03 .def_1608))
(define-fun .def_1604 () Bool (= call__DRAGON_.ite44 call__DRAGON_.ite33))
(define-fun .def_1605 () Bool (or .def_1600 .def_1604))
(define-fun .def_1599 () Bool (= call__DRAGON_.ite9 call__DRAGON_.ite4))
(define-fun .def_1601 () Bool (or .def_1599 .def_1600))
(define-fun .def_1595 () Bool (= call__DRAGON_.ite8 call__DRAGON_.ite9))
(define-fun .def_1597 () Bool (or .def_1595 param_e03))
(define-fun .def_1602 () Bool (and .def_1597 .def_1601))
(define-fun .def_1606 () Bool (and .def_1602 .def_1605))
(define-fun .def_1610 () Bool (and .def_1606 .def_1609))
(define-fun .def_1591 () Bool (= call__DRAGON_.ite31 call__DRAGON_.ite30))
(define-fun .def_1592 () Bool (or param_e02 .def_1591))
(define-fun .def_1587 () Bool (= call__DRAGON_.ite22 call__DRAGON_.ite31))
(define-fun .def_1588 () Bool (or .def_1560 .def_1587))
(define-fun .def_1582 () Bool (= call__DRAGON_.ite20 call__DRAGON_.ite21))
(define-fun .def_1583 () Bool (or param_e02 .def_1582))
(define-fun .def_1579 () Bool (= call__DRAGON_.ite12 call__DRAGON_.ite21))
(define-fun .def_1580 () Bool (or .def_1560 .def_1579))
(define-fun .def_1574 () Bool (= call__DRAGON_.ite10 call__DRAGON_.ite9))
(define-fun .def_1575 () Bool (or param_e02 .def_1574))
(define-fun .def_1570 () Bool (= call__DRAGON_.ite3 call__DRAGON_.ite10))
(define-fun .def_1571 () Bool (or .def_1560 .def_1570))
(define-fun .def_1567 () Bool (= call__DRAGON_.ite59 call__DRAGON_.ite60))
(define-fun .def_1568 () Bool (or param_e02 .def_1567))
(define-fun .def_1564 () Bool (= call__DRAGON_.ite60 call__DRAGON_.ite47))
(define-fun .def_1565 () Bool (or .def_1560 .def_1564))
(define-fun .def_1559 () Bool (= call__DRAGON_.ite32 call__DRAGON_.ite45))
(define-fun .def_1561 () Bool (or .def_1559 .def_1560))
(define-fun .def_1556 () Bool (= call__DRAGON_.ite45 call__DRAGON_.ite44))
(define-fun .def_1558 () Bool (or .def_1556 param_e02))
(define-fun .def_1562 () Bool (and .def_1558 .def_1561))
(define-fun .def_1566 () Bool (and .def_1562 .def_1565))
(define-fun .def_1569 () Bool (and .def_1566 .def_1568))
(define-fun .def_1572 () Bool (and .def_1569 .def_1571))
(define-fun .def_1576 () Bool (and .def_1572 .def_1575))
(define-fun .def_1581 () Bool (and .def_1576 .def_1580))
(define-fun .def_1584 () Bool (and .def_1581 .def_1583))
(define-fun .def_1589 () Bool (and .def_1584 .def_1588))
(define-fun .def_1593 () Bool (and .def_1589 .def_1592))
(define-fun .def_1550 () Bool (= call__DRAGON_.ite11 call__DRAGON_.ite10))
(define-fun .def_1551 () Bool (or param_e01 .def_1550))
(define-fun .def_1546 () Bool (= call__DRAGON_.ite2 call__DRAGON_.ite11))
(define-fun .def_1547 () Bool (or .def_1541 .def_1546))
(define-fun .def_1540 () Bool (= call__DRAGON_.ite61 call__DRAGON_.ite46))
(define-fun .def_1542 () Bool (or .def_1540 .def_1541))
(define-fun .def_1536 () Bool (= call__DRAGON_.ite61 call__DRAGON_.ite60))
(define-fun .def_1538 () Bool (or .def_1536 param_e01))
(define-fun .def_1543 () Bool (and .def_1538 .def_1542))
(define-fun .def_1548 () Bool (and .def_1543 .def_1547))
(define-fun .def_1552 () Bool (and .def_1548 .def_1551))
(define-fun .def_1530 () Bool (= call__DRAGON_.ite55 call__DRAGON_.ite52))
(define-fun .def_1531 () Bool (or .def_1303 .def_1530))
(define-fun .def_1527 () Bool (= call__DRAGON_.ite54 call__DRAGON_.ite55))
(define-fun .def_1528 () Bool (or param_e11 .def_1527))
(define-fun .def_1532 () Bool (and .def_1528 .def_1531))
(define-fun .def_1523 () Bool (= call__DRAGON_.ite56 call__DRAGON_.ite51))
(define-fun .def_1524 () Bool (or .def_1294 .def_1523))
(define-fun .def_1520 () Bool (= call__DRAGON_.ite56 call__DRAGON_.ite55))
(define-fun .def_1521 () Bool (or param_e10 .def_1520))
(define-fun .def_1525 () Bool (and .def_1521 .def_1524))
(define-fun .def_1515 () Bool (= call__DRAGON_.ite57 call__DRAGON_.ite50))
(define-fun .def_1516 () Bool (or .def_1288 .def_1515))
(define-fun .def_1512 () Bool (= call__DRAGON_.ite57 call__DRAGON_.ite56))
(define-fun .def_1513 () Bool (or param_e09 .def_1512))
(define-fun .def_1517 () Bool (and .def_1513 .def_1516))
(define-fun .def_1509 () Bool (= env call_Sofar.Sofar))
(define-fun .def_1506 () Bool (= erreur call__DRAGON_.erreur))
(define-fun .def_1502 () Bool (= invalid call__DRAGON_.invalid))
(define-fun .def_1498 () Bool (= dirty call__DRAGON_.dirty))
(define-fun .def_1494 () Bool (= shared_dirty call__DRAGON_.shared_dirty))
(define-fun .def_1490 () Bool (= shared call__DRAGON_.shared))
(define-fun .def_1486 () Bool (= exclusive call__DRAGON_.exclusive))
(define-fun .def_1480 () Bool (not env))
(define-fun .def_1481 () Bool (or flby .def_1480))
(define-fun .def_1482 () Bool (= _OK_ .def_1481))
(define-fun .def_1474 () Bool (= call__DRAGON_.ite39 call__DRAGON_.ite40))
(define-fun .def_1475 () Bool (or param_e08 .def_1474))
(define-fun .def_1471 () Bool (= call__DRAGON_.ite37 call__DRAGON_.ite40))
(define-fun .def_1472 () Bool (or .def_1448 .def_1471))
(define-fun .def_1468 () Bool (= call__DRAGON_.ite27 call__DRAGON_.ite28))
(define-fun .def_1469 () Bool (or param_e08 .def_1468))
(define-fun .def_1465 () Bool (= call__DRAGON_.ite25 call__DRAGON_.ite28))
(define-fun .def_1466 () Bool (or .def_1448 .def_1465))
(define-fun .def_1462 () Bool (= call__DRAGON_.ite17 call__DRAGON_.ite18))
(define-fun .def_1463 () Bool (or param_e08 .def_1462))
(define-fun .def_1459 () Bool (= call__DRAGON_.ite18 call__DRAGON_.ite15))
(define-fun .def_1460 () Bool (or .def_1448 .def_1459))
(define-fun .def_1455 () Bool (= call__DRAGON_.ite7 call__DRAGON_.ite8))
(define-fun .def_1456 () Bool (or param_e08 .def_1455))
(define-fun .def_1452 () Bool (= call__DRAGON_.ite5 call__DRAGON_.ite8))
(define-fun .def_1453 () Bool (or .def_1448 .def_1452))
(define-fun .def_1447 () Bool (= call__DRAGON_.ite58 call__DRAGON_.ite49))
(define-fun .def_1449 () Bool (or .def_1447 .def_1448))
(define-fun .def_1443 () Bool (= call__DRAGON_.ite58 call__DRAGON_.ite57))
(define-fun .def_1445 () Bool (or .def_1443 param_e08))
(define-fun .def_1450 () Bool (and .def_1445 .def_1449))
(define-fun .def_1454 () Bool (and .def_1450 .def_1453))
(define-fun .def_1457 () Bool (and .def_1454 .def_1456))
(define-fun .def_1461 () Bool (and .def_1457 .def_1460))
(define-fun .def_1464 () Bool (and .def_1461 .def_1463))
(define-fun .def_1467 () Bool (and .def_1464 .def_1466))
(define-fun .def_1470 () Bool (and .def_1467 .def_1469))
(define-fun .def_1473 () Bool (and .def_1470 .def_1472))
(define-fun .def_1476 () Bool (and .def_1473 .def_1475))
(define-fun .def_1438 () Bool (= call__DRAGON_.ite41 call__DRAGON_.ite40))
(define-fun .def_1439 () Bool (or param_e07 .def_1438))
(define-fun .def_1434 () Bool (= call__DRAGON_.ite41 call__DRAGON_.ite36))
(define-fun .def_1435 () Bool (or .def_1430 .def_1434))
(define-fun .def_1429 () Bool (= call__DRAGON_.ite59 call__DRAGON_.ite48))
(define-fun .def_1431 () Bool (or .def_1429 .def_1430))
(define-fun .def_1425 () Bool (= call__DRAGON_.ite58 call__DRAGON_.ite59))
(define-fun .def_1427 () Bool (or .def_1425 param_e07))
(define-fun .def_1432 () Bool (and .def_1427 .def_1431))
(define-fun .def_1436 () Bool (and .def_1432 .def_1435))
(define-fun .def_1440 () Bool (and .def_1436 .def_1439))
(define-fun .def_1419 () Bool (= call__DRAGON_.ite42 call__DRAGON_.ite41))
(define-fun .def_1420 () Bool (or param_e05 .def_1419))
(define-fun .def_1415 () Bool (= call__DRAGON_.ite35 call__DRAGON_.ite42))
(define-fun .def_1416 () Bool (or .def_1410 .def_1415))
(define-fun .def_1409 () Bool (= call__DRAGON_.ite13 call__DRAGON_.ite20))
(define-fun .def_1411 () Bool (or .def_1409 .def_1410))
(define-fun .def_1406 () Bool (= call__DRAGON_.ite19 call__DRAGON_.ite20))
(define-fun .def_1408 () Bool (or .def_1406 param_e05))
(define-fun .def_1412 () Bool (and .def_1408 .def_1411))
(define-fun .def_1417 () Bool (and .def_1412 .def_1416))
(define-fun .def_1421 () Bool (and .def_1417 .def_1420))
(define-fun .def_1402 () Bool (= call__DRAGON_.ite29 call__DRAGON_.ite28))
(define-fun .def_1403 () Bool (or param_e06 .def_1402))
(define-fun .def_1398 () Bool (= call__DRAGON_.ite24 call__DRAGON_.ite29))
(define-fun .def_1399 () Bool (or .def_1394 .def_1398))
(define-fun .def_1393 () Bool (= call__DRAGON_.ite19 call__DRAGON_.ite14))
(define-fun .def_1395 () Bool (or .def_1393 .def_1394))
(define-fun .def_1389 () Bool (= call__DRAGON_.ite19 call__DRAGON_.ite18))
(define-fun .def_1391 () Bool (or .def_1389 param_e06))
(define-fun .def_1396 () Bool (and .def_1391 .def_1395))
(define-fun .def_1400 () Bool (and .def_1396 .def_1399))
(define-fun .def_1404 () Bool (and .def_1400 .def_1403))
(define-fun .def_1422 () Bool (and .def_1404 .def_1421))
(define-fun .def_1441 () Bool (and .def_1422 .def_1440))
(define-fun .def_1477 () Bool (and .def_1441 .def_1476))
(define-fun .def_1483 () Bool (and .def_1477 .def_1482))
(define-fun .def_1487 () Bool (and .def_1483 .def_1486))
(define-fun .def_1491 () Bool (and .def_1487 .def_1490))
(define-fun .def_1495 () Bool (and .def_1491 .def_1494))
(define-fun .def_1499 () Bool (and .def_1495 .def_1498))
(define-fun .def_1503 () Bool (and .def_1499 .def_1502))
(define-fun .def_1507 () Bool (and .def_1503 .def_1506))
(define-fun .def_1510 () Bool (and .def_1507 .def_1509))
(define-fun .def_1518 () Bool (and .def_1510 .def_1517))
(define-fun .def_1526 () Bool (and .def_1518 .def_1525))
(define-fun .def_1533 () Bool (and .def_1526 .def_1532))
(define-fun .def_1553 () Bool (and .def_1533 .def_1552))
(define-fun .def_1594 () Bool (and .def_1553 .def_1593))
(define-fun .def_1611 () Bool (and .def_1594 .def_1610))
(define-fun .def_1626 () Bool (and .def_1611 .def_1625))
(define-fun .def_1636 () Bool (and .def_1626 .def_1635))
(define-fun .def_1638 () Bool (and .def_1636 .def_1637))
(define-fun .def_1640 () Bool (and .def_1638 .def_1639))
(define-fun .def_1642 () Bool (and .def_1640 .def_1641))
(define-fun .def_1644 () Bool (and .def_1642 .def_1643))
(define-fun .def_1646 () Bool (and .def_1644 .def_1645))
(define-fun .def_1648 () Bool (and .def_1646 .def_1647))
(define-fun .def_1750 () Bool (and .def_1648 .def_1749))
(define-fun .def_1752 () Bool (and .def_1750 .def_1751))
(define-fun .def_1380 () Bool (<= param_init_invalid 0))
(define-fun .def_1381 () Bool (not .def_1380))
(define-fun .def_1383 () Bool (and .def_1381 call_excludes12.excludes))
(define-fun .def_1385 () Bool (= .def_1383 call_Sofar.flby))
(define-fun .def_1378 () Bool (= call__DRAGON_.flby4 0))
(define-fun .def_1375 () Bool (= call__DRAGON_.flby3 0))
(define-fun .def_1372 () Bool (= call__DRAGON_.flby2 0))
(define-fun .def_1369 () Bool (= param_init_invalid call__DRAGON_.flby))
(define-fun .def_1363 () Bool (= call__DRAGON_.ite37 0))
(define-fun .def_1356 () Bool (not call__DRAGON_.g08))
(define-fun .def_1364 () Bool (or .def_1356 .def_1363))
(define-fun .def_1359 () Bool (= call__DRAGON_.ite5 0))
(define-fun .def_1360 () Bool (or .def_1356 .def_1359))
(define-fun .def_1354 () Bool (= call__DRAGON_.ite25 1))
(define-fun .def_1357 () Bool (or .def_1354 .def_1356))
(define-fun .def_1361 () Bool (and .def_1357 .def_1360))
(define-fun .def_1365 () Bool (and .def_1361 .def_1364))
(define-fun .def_1350 () Bool (= call__DRAGON_.ite24 1))
(define-fun .def_1348 () Bool (not call__DRAGON_.g06))
(define-fun .def_1351 () Bool (or .def_1348 .def_1350))
(define-fun .def_1344 () Bool (= call__DRAGON_.ite13 0))
(define-fun .def_1342 () Bool (not call__DRAGON_.g05))
(define-fun .def_1345 () Bool (or .def_1342 .def_1344))
(define-fun .def_1338 () Bool (= call__DRAGON_.ite23 0))
(define-fun .def_1336 () Bool (not call__DRAGON_.g04))
(define-fun .def_1339 () Bool (or .def_1336 .def_1338))
(define-fun .def_1331 () Bool (= call__DRAGON_.ite3 0))
(define-fun .def_1328 () Bool (not call__DRAGON_.g02))
(define-fun .def_1332 () Bool (or .def_1328 .def_1331))
(define-fun .def_1326 () Bool (= call__DRAGON_.ite32 0))
(define-fun .def_1329 () Bool (or .def_1326 .def_1328))
(define-fun .def_1333 () Bool (and .def_1329 .def_1332))
(define-fun .def_1323 () Bool (= call__DRAGON_.flby6 call__DRAGON_.mem_init))
(define-fun .def_1319 () Bool (= call__DRAGON_.flby5 0))
(define-fun .def_1314 () Bool (= call__DRAGON_.ite53 call__DRAGON_.ite54))
(define-fun .def_1315 () Bool (or .def_1310 .def_1314))
(define-fun .def_1308 () Bool (= call__DRAGON_.ite6 call__DRAGON_.ite7))
(define-fun .def_1311 () Bool (or .def_1308 .def_1310))
(define-fun .def_1316 () Bool (and .def_1311 .def_1315))
(define-fun .def_1301 () Bool (= call__DRAGON_.ite26 call__DRAGON_.ite27))
(define-fun .def_1304 () Bool (or .def_1301 .def_1303))
(define-fun .def_1292 () Bool (= call__DRAGON_.ite16 call__DRAGON_.ite17))
(define-fun .def_1295 () Bool (or .def_1292 .def_1294))
(define-fun .def_1286 () Bool (= call__DRAGON_.ite38 call__DRAGON_.ite39))
(define-fun .def_1289 () Bool (or .def_1286 .def_1288))
(define-fun .def_1296 () Bool (and .def_1289 .def_1295))
(define-fun .def_1298 () Bool (and .def_1296 flby))
(define-fun .def_1305 () Bool (and .def_1298 .def_1304))
(define-fun .def_1317 () Bool (and .def_1305 .def_1316))
(define-fun .def_1320 () Bool (and .def_1317 .def_1319))
(define-fun .def_1324 () Bool (and .def_1320 .def_1323))
(define-fun .def_1334 () Bool (and .def_1324 .def_1333))
(define-fun .def_1340 () Bool (and .def_1334 .def_1339))
(define-fun .def_1346 () Bool (and .def_1340 .def_1345))
(define-fun .def_1352 () Bool (and .def_1346 .def_1351))
(define-fun .def_1366 () Bool (and .def_1352 .def_1365))
(define-fun .def_1370 () Bool (and .def_1366 .def_1369))
(define-fun .def_1373 () Bool (and .def_1370 .def_1372))
(define-fun .def_1376 () Bool (and .def_1373 .def_1375))
(define-fun .def_1379 () Bool (and .def_1376 .def_1378))
(define-fun .def_1386 () Bool (and .def_1379 .def_1385))
(define-fun .def_1753 () Bool (and .def_1386 .def_1752))
(assert .def_1753)
